[VALIDATOR STDOUT]
Checking plan: /home/jfan5/Safety-gen/runs/benchmark/optic/blocksworld_20260201_170641/blocksworld/optic_results/bw_ops3_n29_seed29001.plan
Plan executed successfully - checking goal
Plan valid
Final value: 148 

Successful plans:
Value: 148
 /home/jfan5/Safety-gen/runs/benchmark/optic/blocksworld_20260201_170641/blocksworld/optic_results/bw_ops3_n29_seed29001.plan 148
